Scheduling nurses/nurse.sol
# Solution for model nurse
# Objective value = 100
Z 100
S_1 15
S_2 10
S_3 5
S_4 15
S_5 0
S_6 25
S_7 10
S_8 20
S_9 0
S_10 0
S_11 0
S_12 0
